5 5
1 35 4 74 3 83 2 71 0 46
2 35 4 45 1 13 0 10 3 66
1 70 4 72 0 25 3 44 2 60
2 47 0 40 4 7 1 46 3 23
4 83 1 46 2 86 3 13 0 21
-1
0 1 5
0 2 5
0 2 4 5
0 1 2 5
0 1 5
-2
37 491
98 269
162 263 371
61 100 254
114 391

386 6
16 12 24 8 4
0 10 21 18 7
15 5 22 3 14
2 23 19 13 9
20 1 17 11 6
